
--- Job gp_group_small.gms Start 04/05/16 10:12:02 24.4.3 r51699 WEX-WEI x86 64bit/MS Windows
GAMS 24.4.3   Copyright (C) 1987-2015 GAMS Development. All rights reserved
Licensee: School of Sustainable Engineering              G150407:1621AO-WIN
          Arizona State University                                  DC11708
          License for teaching and research at degree granting institutions
--- Starting compilation
--- gp_group_small.gms(108) 3 Mb
--- Starting execution: elapsed 0:00:00.002
--- gp_group_small.gms(62) 4 Mb
--- Generating MINLP model model_group
--- gp_group_small.gms(105) 6 Mb
---   23 rows  31 columns  137 non-zeroes
---   0 nl-code  0 nl-non-zeroes
---   30 discrete-columns
--- gp_group_small.gms(105) 4 Mb
--- Executing DICOPT: elapsed 0:00:00.006

Dicopt           24.4.3 r51699 Released Apr  2, 2015 WEI x86 64bit/MS Windows 

--- DICOPT: No non-linearities found: executing the MIP solver

      The model is linear (possibly with integer variables).
      We will call the MIP solver to solve it for you.

      Advice: use a MIP solver to solve this problem.

IBM ILOG CPLEX   24.4.3 r51699 Released Apr  2, 2015 WEI x86 64bit/MS Windows 
Cplex 12.6.1.0

Reading data...
Starting Cplex...
Space for names approximately 0.00 Mb
Use option 'names no' to turn use of names off
Tried aggregator 1 time.
MIP Presolve eliminated 7 rows and 1 columns.
MIP Presolve modified 10 coefficients.
Reduced MIP has 16 rows, 30 columns, and 90 nonzeros.
Reduced MIP has 30 binaries, 0 generals, 0 SOSs, and 0 indicators.
Presolve time = 0.00 sec. (0.10 ticks)
Found incumbent of value 153680.000000 after 0.00 sec. (0.20 ticks)
Probing time = 0.00 sec. (0.02 ticks)
Tried aggregator 1 time.
Reduced MIP has 16 rows, 30 columns, and 90 nonzeros.
Reduced MIP has 30 binaries, 0 generals, 0 SOSs, and 0 indicators.
Presolve time = 0.06 sec. (0.05 ticks)
Probing time = 0.00 sec. (0.02 ticks)
Clique table members: 30.
MIP emphasis: balance optimality and feasibility.
MIP search method: dynamic search.
Parallel mode: none, using 1 thread.
Tried aggregator 1 time.
No LP presolve or aggregator reductions.
Presolve time = 0.00 sec. (0.01 ticks)
Initializing dual steep norms . . .

Iteration      Dual Objective            In Variable           Out Variable
     1               0.000000                   y(3)  xy_connect_2(3) slack
     2               0.000000                   y(4)  xy_connect_2(4) slack
     3               0.000000                   y(5)  xy_connect_2(5) slack
Root relaxation solution time = 0.00 sec. (0.03 ticks)

        Nodes                                         Cuts/
   Node  Left     Objective  IInf  Best Integer    Best Bound    ItCnt     Gap

*     0+    0                       153680.0000        0.0000           100.00%
Found incumbent of value 153680.000000 after 0.06 sec. (0.38 ticks)
      0     0        0.0000     3   153680.0000        0.0000        3  100.00%
      0     0        8.0000     8   153680.0000       Cuts: 6       12   99.99%
*     0+    0                           16.0000        8.0000            50.00%
Found incumbent of value 16.000000 after 0.08 sec. (0.51 ticks)
      0     0        cutoff             16.0000        8.0000       12   50.00%
Elapsed time = 0.08 sec. (0.51 ticks, tree = 0.00 MB, solutions = 2)

Cover cuts applied:  2
Gomory fractional cuts applied:  2

Root node processing (before b&c):
  Real time             =    0.08 sec. (0.51 ticks)
Sequential b&c:
  Real time             =    0.00 sec. (0.00 ticks)
                          ------------
Total (root+branch&cut) =    0.08 sec. (0.51 ticks)
MIP status(101): integer optimal solution
Cplex Time: 0.08sec (det. 0.51 ticks)
Fixing integer variables, and solving final LP...
Tried aggregator 1 time.
LP Presolve eliminated 23 rows and 31 columns.
All rows and columns eliminated.
Presolve time = 0.00 sec. (0.01 ticks)
Fixed MIP status(1): optimal
Cplex Time: 0.00sec (det. 0.02 ticks)

Proven optimal solution.

MIP Solution:           16.000000    (12 iterations, 0 nodes)
Final Solve:            16.000000    (0 iterations)

Best possible:          16.000000
Absolute gap:            0.000000
Relative gap:            0.000000

--- Restarting execution
--- gp_group_small.gms(105) 2 Mb
--- Reading solution for model model_group
--- Executing after solve: elapsed 0:00:00.200
--- gp_group_small.gms(108) 3 Mb
*** Status: Normal completion
--- Job gp_group_small.gms Stop 04/05/16 10:12:02 elapsed 0:00:00.201
